(declare-fun a () Real)
(declare-fun b () Real)
(declare-fun c () Real)
(declare-fun e () Real)
(assert (forall ((d Real)) (distinct (= b 0) (= (= c 0) (= (= (= c d) (= e 0)) (= a 0))))))
(check-sat)
(declare-fun a () Real)
(declare-fun b () Real)
(declare-fun c () Real)
(declare-fun e () Real)
(assert (forall ((d Real)) (distinct (= b 0) (= (= c 0) (= (= (= c d) (= e 0)) (= a 0))))))
(check-sat)
